Linear/lin_ivlbc_4.txt
41 seconds 
<gurobi.Var p0_0_14 (value 1.0)>
<gurobi.Var p0_1_4 (value 1.0)>
<gurobi.Var p0_1_5 (value 1.0)>
<gurobi.Var p0_1_7 (value 1.0)>
<gurobi.Var p0_2_0 (value 1.0)>
<gurobi.Var p0_2_2 (value 1.0)>
<gurobi.Var p0_2_3 (value 1.0)>
<gurobi.Var p0_2_5 (value 1.0)>
<gurobi.Var p0_2_6 (value 1.0)>
<gurobi.Var p0_2_7 (value 1.0)>
<gurobi.Var p0_2_8 (value 1.0)>
<gurobi.Var p0_2_9 (value 1.0)>
<gurobi.Var p0_2_10 (value 1.0)>
<gurobi.Var p0_3_3 (value 1.0)>
<gurobi.Var p0_3_9 (value 1.0)>
<gurobi.Var p0_3_12 (value 1.0)>
<gurobi.Var x0_56 (value 1.0)>
<gurobi.Var A0_14 (value 1.0)>
<gurobi.Var y0_57 (value 1.0)>
<gurobi.Var y0_59 (value 1.0)>
<gurobi.Var z0_25 (value 1.0)>
<gurobi.Var z0_27 (value 1.0)>
<gurobi.Var x1_17 (value 1.0)>
<gurobi.Var d0_35 (value 1.0)>
<gurobi.Var x1_19 (value 1.0)>
<gurobi.Var d0_39 (value 1.0)>
<gurobi.Var x1_21 (value 1.0)>
<gurobi.Var d0_43 (value 1.0)>
<gurobi.Var x1_23 (value 1.0)>
<gurobi.Var d0_47 (value 1.0)>
<gurobi.Var x1_29 (value 1.0)>
<gurobi.Var d0_59 (value 1.0)>
<gurobi.Var x1_31 (value 1.0)>
<gurobi.Var d0_63 (value 1.0)>
<gurobi.Var A1_4 (value 1.0)>
<gurobi.Var y1_17 (value 1.0)>
<gurobi.Var y1_19 (value 1.0)>
<gurobi.Var A1_5 (value 1.0)>
<gurobi.Var y1_21 (value 1.0)>
<gurobi.Var y1_23 (value 1.0)>
<gurobi.Var A1_7 (value 1.0)>
<gurobi.Var y1_29 (value 1.0)>
<gurobi.Var y1_31 (value 1.0)>
<gurobi.Var z1_5 (value 1.0)>
<gurobi.Var z1_7 (value 1.0)>
<gurobi.Var z1_17 (value 1.0)>
<gurobi.Var z1_19 (value 1.0)>
<gurobi.Var z1_45 (value 1.0)>
<gurobi.Var z1_47 (value 1.0)>
<gurobi.Var x2_1 (value 1.0)>
<gurobi.Var d1_3 (value 1.0)>
<gurobi.Var x2_3 (value 1.0)>
<gurobi.Var d1_7 (value 1.0)>
<gurobi.Var x2_9 (value 1.0)>
<gurobi.Var d1_19 (value 1.0)>
<gurobi.Var x2_11 (value 1.0)>
<gurobi.Var d1_23 (value 1.0)>
<gurobi.Var x2_13 (value 1.0)>
<gurobi.Var d1_27 (value 1.0)>
<gurobi.Var x2_15 (value 1.0)>
<gurobi.Var d1_31 (value 1.0)>
<gurobi.Var x2_21 (value 1.0)>
<gurobi.Var d1_43 (value 1.0)>
<gurobi.Var x2_23 (value 1.0)>
<gurobi.Var d1_47 (value 1.0)>
<gurobi.Var x2_25 (value 1.0)>
<gurobi.Var d1_51 (value 1.0)>
<gurobi.Var x2_27 (value 1.0)>
<gurobi.Var d1_55 (value 1.0)>
<gurobi.Var x2_29 (value 1.0)>
<gurobi.Var d1_59 (value 1.0)>
<gurobi.Var x2_31 (value 1.0)>
<gurobi.Var d1_63 (value 1.0)>
<gurobi.Var x2_33 (value 1.0)>
<gurobi.Var d1_67 (value 1.0)>
<gurobi.Var x2_35 (value 1.0)>
<gurobi.Var d1_71 (value 1.0)>
<gurobi.Var x2_37 (value 1.0)>
<gurobi.Var d1_75 (value 1.0)>
<gurobi.Var x2_39 (value 1.0)>
<gurobi.Var d1_79 (value 1.0)>
<gurobi.Var x2_41 (value 1.0)>
<gurobi.Var d1_83 (value 1.0)>
<gurobi.Var x2_43 (value 1.0)>
<gurobi.Var d1_87 (value 1.0)>
<gurobi.Var A2_0 (value 1.0)>
<gurobi.Var y2_1 (value 1.0)>
<gurobi.Var y2_3 (value 1.0)>
<gurobi.Var A2_2 (value 1.0)>
<gurobi.Var y2_9 (value 1.0)>
<gurobi.Var y2_11 (value 1.0)>
<gurobi.Var A2_3 (value 1.0)>
<gurobi.Var y2_13 (value 1.0)>
<gurobi.Var y2_15 (value 1.0)>
<gurobi.Var A2_5 (value 1.0)>
<gurobi.Var y2_21 (value 1.0)>
<gurobi.Var y2_23 (value 1.0)>
<gurobi.Var A2_6 (value 1.0)>
<gurobi.Var y2_25 (value 1.0)>
<gurobi.Var y2_27 (value 1.0)>
<gurobi.Var A2_7 (value 1.0)>
<gurobi.Var y2_29 (value 1.0)>
<gurobi.Var y2_31 (value 1.0)>
<gurobi.Var A2_8 (value 1.0)>
<gurobi.Var y2_33 (value 1.0)>
<gurobi.Var y2_35 (value 1.0)>
<gurobi.Var A2_9 (value 1.0)>
<gurobi.Var y2_37 (value 1.0)>
<gurobi.Var y2_39 (value 1.0)>
<gurobi.Var A2_10 (value 1.0)>
<gurobi.Var y2_41 (value 1.0)>
<gurobi.Var y2_43 (value 1.0)>
<gurobi.Var z2_1 (value 1.0)>
<gurobi.Var z2_3 (value 1.0)>
<gurobi.Var z2_5 (value 1.0)>
<gurobi.Var z2_7 (value 1.0)>
<gurobi.Var z2_9 (value 1.0)>
<gurobi.Var z2_11 (value 1.0)>
<gurobi.Var z2_33 (value 1.0)>
<gurobi.Var z2_35 (value 1.0)>
<gurobi.Var z2_41 (value 1.0)>
<gurobi.Var z2_43 (value 1.0)>
<gurobi.Var z2_45 (value 1.0)>
<gurobi.Var z2_47 (value 1.0)>
<gurobi.Var z2_53 (value 1.0)>
<gurobi.Var z2_55 (value 1.0)>
<gurobi.Var z2_57 (value 1.0)>
<gurobi.Var z2_59 (value 1.0)>
<gurobi.Var z2_61 (value 1.0)>
<gurobi.Var z2_63 (value 1.0)>
<gurobi.Var d2_3 (value 1.0)>
<gurobi.Var d2_7 (value 1.0)>
<gurobi.Var d2_11 (value 1.0)>
<gurobi.Var d2_15 (value 1.0)>
<gurobi.Var d2_19 (value 1.0)>
<gurobi.Var d2_23 (value 1.0)>
<gurobi.Var x3_13 (value 1.0)>
<gurobi.Var d2_26 (value 1.0)>
<gurobi.Var x3_15 (value 1.0)>
<gurobi.Var d2_30 (value 1.0)>
<gurobi.Var d2_67 (value 1.0)>
<gurobi.Var d2_71 (value 1.0)>
<gurobi.Var x3_37 (value 1.0)>
<gurobi.Var d2_74 (value 1.0)>
<gurobi.Var x3_39 (value 1.0)>
<gurobi.Var d2_78 (value 1.0)>
<gurobi.Var d2_83 (value 1.0)>
<gurobi.Var d2_87 (value 1.0)>
<gurobi.Var d2_91 (value 1.0)>
<gurobi.Var d2_95 (value 1.0)>
<gurobi.Var x3_49 (value 1.0)>
<gurobi.Var d2_98 (value 1.0)>
<gurobi.Var x3_51 (value 1.0)>
<gurobi.Var d2_102 (value 1.0)>
<gurobi.Var d2_107 (value 1.0)>
<gurobi.Var d2_111 (value 1.0)>
<gurobi.Var d2_115 (value 1.0)>
<gurobi.Var d2_119 (value 1.0)>
<gurobi.Var d2_123 (value 1.0)>
<gurobi.Var d2_127 (value 1.0)>
<gurobi.Var A3_3 (value 1.0)>
<gurobi.Var y3_13 (value 1.0)>
<gurobi.Var y3_15 (value 1.0)>
<gurobi.Var A3_9 (value 1.0)>
<gurobi.Var y3_37 (value 1.0)>
<gurobi.Var y3_39 (value 1.0)>
<gurobi.Var A3_12 (value 1.0)>
<gurobi.Var y3_49 (value 1.0)>
<gurobi.Var y3_51 (value 1.0)>
<gurobi.Var z3_49 (value 1.0)>
<gurobi.Var z3_51 (value 1.0)>
<gurobi.Var z3_53 (value 1.0)>
<gurobi.Var z3_55 (value 1.0)>
<gurobi.Var z3_61 (value 1.0)>
<gurobi.Var z3_63 (value 1.0)>
<gurobi.Var d3_99 (value 1.0)>
<gurobi.Var d3_103 (value 1.0)>
<gurobi.Var d3_107 (value 1.0)>
<gurobi.Var d3_111 (value 1.0)>
<gurobi.Var x4_57 (value 1.0)>
<gurobi.Var d3_114 (value 1.0)>
<gurobi.Var x4_59 (value 1.0)>
<gurobi.Var d3_118 (value 1.0)>
<gurobi.Var d3_123 (value 1.0)>
<gurobi.Var d3_127 (value 1.0)>
